
Gurobi 9.5.1 (win64) logging started Mon Sep 18 23:57:45 2023

Set parameter LogFile to value "consol_info_4"

Gurobi 9.5.1 (win64) logging started Thu Nov  9 18:09:11 2023

Set parameter LogFile to value "consol_info_4"

Gurobi 9.5.1 (win64) logging started Sat Nov 11 13:10:03 2023

Set parameter LogFile to value "consol_info_4"
